(declare-const c_0 Real)
(declare-const c_1 Real)
(declare-const c_2 Real)
(declare-const c_3 Real)
(declare-const c_4 Real)
(declare-const c_5 Real)
(declare-const c_6 Real)
(declare-const c_7 Real)
(declare-const c_8 Real)
(declare-const s_0 Real)
(declare-const s_1 Real)
(declare-const s_2 Real)
(declare-const s_3 Real)
(declare-const s_4 Real)
(declare-const s_5 Real)
(declare-const s_6 Real)
(declare-const s_7 Real)
(declare-const s_8 Real)
(assert (forall ((i Real) ) (=> (and (>= (+ (* 1024 1) (* 1 i ) ) 0) (>= (+ (* 1023 1) (* (- 1) i ) ) 0) ) (>= (+ (* 1 i s_1 ) (* 1 i i s_2 ) (* 1 s_0 ) ) 0) )))
(assert (forall ((i Real) ) (=> (and (>= (+ (* 1024 1) (* 1 i ) ) 0) (>= (+ (* 1023 1) (* (- 1) i ) ) 0) ) (>= (+ (* 1 c_0 ) (* 1 c_1 i ) (* 1 c_2 i i ) ) 0) )))
(assert (forall ((i Real) ) (=> (and (>= (+ (* 1023 1) (* (- 1) i ) ) 0) (>= (+ (* 1024 1) (* 1 i ) ) 0) (>= (+ (* 1 i s_1 ) (* 1 i i s_2 ) (* 1 s_0 ) ) 0) ) (>= (* 1 s_3 ) 0) )))
(assert (forall ((i Real) ) (=> (and (>= (+ (* 1023 1) (* (- 1) i ) ) 0) (>= (+ (* 1024 1) (* 1 i ) ) 0) (>= (+ (* 1 i s_1 ) (* 1 i i s_2 ) (* 1 s_0 ) ) 0) ) (>= (* 1 c_3 ) 0) )))
(assert (forall ((i Real) ) (=> (and (>= (+ (* 1023 1) (* (- 1) i ) ) 0) (>= (+ (* 1024 1) (* 1 i ) ) 0) (>= (+ (* 1 i s_1 ) (* 1 i i s_2 ) (* 1 s_0 ) ) 0) ) (>= (+ (* (- 1) 1) (* 1 c_0 ) (* 1 c_1 i ) (* 1 c_2 i i ) (* (- 1) c_3 ) ) 0) )))
(assert (forall ((i Real) ) (=> (and (>= (+ (* 99 1) (* (- 1) i ) ) 0) (>= (* (- 1) i ) 0) (>= (* 1 i ) 0) (>= (+ (* 1 i s_4 ) (* 1 i i s_5 ) (* 1 s_3 ) ) 0) ) (>= (+ (* 1 i s_4 ) (* 1 i i s_5 ) (* 1 s_3 ) ) 0) )))
(assert (forall ((i Real) ) (=> (and (>= (+ (* 99 1) (* (- 1) i ) ) 0) (>= (* (- 1) i ) 0) (>= (* 1 i ) 0) (>= (+ (* 1 i s_4 ) (* 1 i i s_5 ) (* 1 s_3 ) ) 0) ) (>= (+ (* 1 c_3 ) (* 1 c_4 i ) (* 1 c_5 i i ) ) 0) )))
(assert (forall ((i Real) ) (=> (and (>= (+ (* 99 1) (* (- 1) i ) ) 0) (>= (* (- 1) i ) 0) (>= (* 1 i ) 0) (>= (+ (* 1 i s_4 ) (* 1 i i s_5 ) (* 1 s_3 ) ) 0) ) (>= (* (- 1) 1) 0) )))
(assert (forall ((i Real) ) (=> (and (>= (+ (* (- 100) 1) (* 1 i ) ) 0) (>= (* (- 1) i ) 0) (>= (* 1 i ) 0) (>= (+ (* 1 i s_4 ) (* 1 i i s_5 ) (* 1 s_3 ) ) 0) ) (>= (+ (* 1 i s_7 ) (* 1 i i s_8 ) (* 1 s_6 ) ) 0) )))
(assert (forall ((i Real) ) (=> (and (>= (+ (* (- 100) 1) (* 1 i ) ) 0) (>= (* (- 1) i ) 0) (>= (* 1 i ) 0) (>= (+ (* 1 i s_4 ) (* 1 i i s_5 ) (* 1 s_3 ) ) 0) ) (>= (+ (* 1 c_6 ) (* 1 c_7 i ) (* 1 c_8 i i ) ) 0) )))

(check-sat)
(get-model)
